(set-logic QF_S)
(declare-fun var0 () String)
(declare-fun var1 () String)
(declare-fun var2 () String)
(declare-fun var3 () String)
(declare-fun var4 () String)
(declare-fun var5 () String)
(declare-fun var6 () String)
(declare-fun var7 () String)
(declare-fun var8 () String)
(declare-fun var9 () String)
(declare-fun var10 () String)
(declare-fun var11 () String)
(declare-fun var12 () String)
(declare-fun var13 () String)
(declare-fun var14 () String)
(declare-fun var15 () String)
(declare-fun var16 () String)
(declare-fun var17 () String)
(declare-fun var18 () String)
(declare-fun var19 () String)
(declare-fun var20 () String)
(declare-fun var21 () String)
(declare-fun var22 () String)
(declare-fun var23 () String)
(declare-fun var24 () String)
(declare-fun var25 () String)
(declare-fun var26 () String)
(declare-fun var27 () String)
(declare-fun var28 () String)
(declare-fun var29 () String)
(declare-fun var30 () String)
(declare-fun var31 () String)
(declare-fun var32 () String)
(declare-fun var33 () String)
(declare-fun var34 () String)
(declare-fun var35 () String)
(declare-fun var36 () String)
(declare-fun var37 () String)
(declare-fun var38 () String)
(declare-fun var39 () String)
(declare-fun var40 () String)
(declare-fun var41 () String)
(declare-fun var42 () String)
(declare-fun var43 () String)
(declare-fun var44 () String)
(declare-fun var45 () String)
(declare-fun var46 () String)
(declare-fun var47 () String)
(declare-fun var48 () String)
(declare-fun var49 () String)
(declare-fun var50 () String)
(declare-fun var51 () String)
(declare-fun var52 () String)
(declare-fun var53 () String)
(declare-fun var54 () String)
(declare-fun var55 () String)
(declare-fun var56 () String)
(declare-fun var57 () String)
(declare-fun var58 () String)
(declare-fun var59 () String)
(declare-fun var60 () String)
(assert (= var0 (str.++ var1 var2)))
(assert (= var2 (str.++ var3 var4)))
(assert (= var4 (str.++ var5 var6)))
(assert (= var6 (str.++ var7 var8)))
(assert (= var8 (str.++ var9 var10)))
(assert (= var10 (str.++ var11 var12)))
(assert (= var12 (str.++ var13 var14)))
(assert (= var14 (str.++ var15 var16)))
(assert (= var16 (str.++ var17 var18)))
(assert (= var18 (str.++ var19 var20)))
(assert (= var20 (str.++ var21 var22)))
(assert (= var22 (str.++ var23 var24)))
(assert (= var24 (str.++ var25 var26)))
(assert (= var26 (str.++ var27 var28)))
(assert (= var28 (str.++ var29 var30)))
(assert (= var30 (str.++ var31 var32)))
(assert (= var32 (str.++ var33 var34)))
(assert (= var34 (str.++ var35 var36)))
(assert (= var36 (str.++ var37 var38)))
(assert (= var38 (str.++ var39 var40)))
(assert (= var40 (str.++ var41 var42)))
(assert (= var42 (str.++ var43 var44)))
(assert (= var44 (str.++ var45 var46)))
(assert (= var46 (str.++ var47 var48)))
(assert (= var48 (str.++ var49 var50)))
(assert (= var50 (str.++ var51 var52)))
(assert (= var52 (str.++ var53 var54)))
(assert (= var54 (str.++ var55 var56)))
(assert (= var56 (str.++ var57 var58)))
(assert (= var58 (str.++ var59 var60)))
(assert (= var0 "solution"))
(assert (= "f" (str.at var27 839)))
(assert (= "a" (str.at var56 243)))
(assert (= "!" (str.at var41 887)))
(assert (= "(" (str.at var19 308)))
(assert (= "x" (str.at var37 310)))
(assert (= "f" (str.at var34 370)))
(assert (= "5" (str.at var58 483)))
(assert (= "X" (str.at var7 747)))
(assert (= "t" (str.at var4 794)))
(assert (= "=" (str.at var33 510)))
(assert (= "S" (str.at var9 7)))
(assert (= "-" (str.at var19 325)))
(assert (= "N" (str.at var25 194)))
(assert (= "l" (str.at var12 210)))
(assert (= "u" (str.at var22 809)))
(assert (= "h" (str.at var24 454)))
(assert (= "F" (str.at var19 161)))
(assert (= "c" (str.at var18 790)))
(assert (= "J" (str.at var28 84)))
(assert (= "b" (str.at var14 325)))
(assert (= "j" (str.at var11 458)))
(assert (= "2" (str.at var24 900)))
(assert (= "}" (str.at var9 915)))
(assert (= "J" (str.at var18 22)))
(assert (= "X" (str.at var46 216)))
(assert (= "&" (str.at var30 746)))
(assert (= "." (str.at var37 811)))
(assert (= "S" (str.at var23 100)))
(assert (= "r" (str.at var15 329)))
(assert (= "`" (str.at var7 516)))
(assert (= "E" (str.at var57 442)))
(assert (= "h" (str.at var7 928)))
(assert (= "Q" (str.at var12 463)))
(assert (= "&" (str.at var2 565)))
(assert (= "^" (str.at var53 738)))
(assert (= "l" (str.at var43 961)))
(assert (= "}" (str.at var55 840)))
(assert (= "4" (str.at var0 612)))
(assert (= "B" (str.at var48 737)))
(assert (= "*" (str.at var28 15)))
(assert (= "<" (str.at var11 206)))
(assert (= "X" (str.at var19 268)))
(assert (= "\\" (str.at var54 875)))
(assert (= ";" (str.at var9 304)))
(assert (= "@" (str.at var14 791)))
(assert (= "R" (str.at var16 61)))
(assert (= "9" (str.at var55 91)))
(assert (= "W" (str.at var50 241)))
(assert (= "#" (str.at var23 297)))
(assert (= "t" (str.at var3 144)))
(assert (= "'" (str.at var14 250)))
(assert (= "L" (str.at var59 688)))
(assert (= "~" (str.at var40 259)))
(assert (= ">" (str.at var45 123)))
(assert (= "v" (str.at var19 417)))
(assert (= "V" (str.at var37 946)))
(assert (= "Z" (str.at var11 459)))
(assert (= "+" (str.at var8 928)))
(assert (= "." (str.at var28 966)))
(assert (= "$" (str.at var33 471)))
(assert (= "{" (str.at var20 871)))
(assert (= "Z" (str.at var2 924)))
(assert (= "J" (str.at var3 140)))
(assert (= "b" (str.at var12 66)))
(assert (= "u" (str.at var18 571)))
(assert (= "9" (str.at var42 336)))
(assert (= "H" (str.at var1 48)))
(assert (= "[" (str.at var50 506)))
(assert (= ")" (str.at var13 214)))
(assert (= "A" (str.at var23 637)))
(assert (= "@" (str.at var16 713)))
(assert (= "T" (str.at var14 421)))
(assert (= "." (str.at var33 59)))
(assert (= "%" (str.at var35 818)))
(assert (= "c" (str.at var36 871)))
(assert (= "m" (str.at var49 314)))
(assert (= "u" (str.at var44 264)))
(assert (= "#" (str.at var17 792)))
(assert (= "Z" (str.at var52 85)))
(assert (= "@" (str.at var20 14)))
(assert (= "5" (str.at var27 61)))
(assert (= "1" (str.at var51 624)))
(assert (= ">" (str.at var26 877)))
(assert (= "R" (str.at var3 592)))
(assert (= "3" (str.at var12 278)))
(assert (= "V" (str.at var47 22)))
(assert (= "-" (str.at var15 464)))
(assert (= "8" (str.at var32 646)))
(assert (= "?" (str.at var26 171)))
(assert (= "Q" (str.at var2 531)))
(assert (= "!" (str.at var60 873)))
(assert (= "n" (str.at var51 981)))
(assert (= "J" (str.at var35 31)))
(assert (= "u" (str.at var2 191)))
(assert (= "D" (str.at var16 616)))
(assert (= "|" (str.at var14 648)))
(assert (= "~" (str.at var20 226)))
(assert (= "V" (str.at var2 754)))
(assert (= "P" (str.at var53 548)))
(assert (= "|" (str.at var12 0)))
(assert (= "," (str.at var2 242)))
(assert (= "+" (str.at var53 442)))
(assert (= "l" (str.at var11 484)))
(assert (= "K" (str.at var24 777)))
(assert (= ":" (str.at var10 413)))
(assert (= "U" (str.at var43 955)))
(assert (= "x" (str.at var33 482)))
(assert (= "[" (str.at var32 753)))
(assert (= "w" (str.at var44 666)))
(assert (= "A" (str.at var3 311)))
(assert (= "0" (str.at var6 882)))
(assert (= "(" (str.at var7 365)))
(assert (= "G" (str.at var15 280)))
(assert (= "T" (str.at var54 852)))
(assert (= "4" (str.at var19 352)))
(assert (= "." (str.at var34 215)))
(assert (= "x" (str.at var16 39)))
(assert (= "p" (str.at var56 919)))
(assert (= "{" (str.at var46 807)))
(assert (= "d" (str.at var27 479)))
(assert (= "_" (str.at var13 90)))
(assert (= "R" (str.at var9 350)))
(assert (= "3" (str.at var39 153)))
(assert (= "R" (str.at var6 443)))
(assert (= "T" (str.at var36 312)))
(assert (= "&" (str.at var59 813)))
(assert (= "W" (str.at var22 362)))
(assert (= "p" (str.at var20 983)))
(assert (= "b" (str.at var22 355)))
(assert (= "S" (str.at var54 468)))
(assert (= "p" (str.at var41 625)))
(assert (= "F" (str.at var53 671)))
(assert (= "C" (str.at var26 556)))
(assert (= "C" (str.at var48 161)))
(assert (= ")" (str.at var45 257)))
(assert (= """" (str.at var4 205)))
(assert (= "T" (str.at var24 94)))
(assert (= "f" (str.at var13 482)))
(assert (= "P" (str.at var42 130)))
(assert (= "3" (str.at var27 772)))
(assert (= "W" (str.at var2 297)))
(assert (= "+" (str.at var3 996)))
(assert (= "z" (str.at var34 569)))
(assert (= "+" (str.at var48 507)))
(assert (= "]" (str.at var0 739)))
(assert (= "v" (str.at var45 457)))
(assert (= "}" (str.at var22 795)))
(assert (= "[" (str.at var17 877)))
(assert (= "N" (str.at var5 826)))
(assert (= """" (str.at var17 984)))
(assert (= "{" (str.at var7 617)))
(assert (= "B" (str.at var47 125)))
(assert (= ";" (str.at var30 480)))
(assert (= "-" (str.at var6 722)))
(assert (= "\\" (str.at var27 662)))
(assert (= "0" (str.at var25 725)))
(assert (= "D" (str.at var32 153)))
(assert (= "j" (str.at var14 653)))
(assert (= "K" (str.at var23 427)))
(assert (= "-" (str.at var41 762)))
(assert (= "~" (str.at var44 244)))
(assert (= "z" (str.at var54 745)))
(assert (= ":" (str.at var45 200)))
(assert (= "[" (str.at var0 835)))
(assert (= "n" (str.at var48 517)))
(assert (= "s" (str.at var28 324)))
(assert (= "L" (str.at var32 118)))
(assert (= "o" (str.at var58 122)))
(assert (= "8" (str.at var43 684)))
(assert (= "*" (str.at var9 15)))
(assert (= "N" (str.at var9 181)))
(assert (= "c" (str.at var39 100)))
(assert (= "*" (str.at var49 910)))
(assert (= "u" (str.at var24 338)))
(assert (= "R" (str.at var55 401)))
(assert (= "6" (str.at var10 311)))
(assert (= "I" (str.at var24 271)))
(assert (= "7" (str.at var7 423)))
(assert (= "X" (str.at var58 383)))
(assert (= "," (str.at var21 95)))
(assert (= "W" (str.at var48 811)))
(assert (= "o" (str.at var14 615)))
(assert (= "2" (str.at var26 457)))
(assert (= "d" (str.at var24 655)))
(assert (= "M" (str.at var11 171)))
(assert (= "D" (str.at var55 776)))
(assert (= "?" (str.at var48 868)))
(assert (= "w" (str.at var52 523)))
(assert (= "f" (str.at var56 393)))
(assert (= ")" (str.at var41 584)))
(assert (= "$" (str.at var29 695)))
(assert (= "B" (str.at var3 941)))
(assert (= "b" (str.at var50 769)))
(assert (= "o" (str.at var25 450)))
(assert (= "f" (str.at var3 566)))
(assert (= "2" (str.at var53 832)))
(assert (= "s" (str.at var39 647)))
(assert (= "8" (str.at var2 302)))
(assert (= "P" (str.at var13 670)))
(assert (= "j" (str.at var31 34)))
(assert (= "p" (str.at var52 358)))
(assert (= "+" (str.at var26 447)))
(assert (= "u" (str.at var40 720)))
(assert (= "S" (str.at var28 729)))
(assert (= "<" (str.at var8 779)))
(assert (= "#" (str.at var20 880)))
(assert (= "'" (str.at var35 946)))
(assert (= "," (str.at var10 606)))
(assert (= "I" (str.at var35 596)))
(assert (= "K" (str.at var55 77)))
(assert (= "Y" (str.at var24 583)))
(assert (= "y" (str.at var55 717)))
(assert (= "T" (str.at var33 966)))
(assert (= "b" (str.at var52 493)))
(assert (= "." (str.at var27 791)))
(assert (= "M" (str.at var34 411)))
(assert (= "6" (str.at var12 73)))
(assert (= """" (str.at var3 101)))
(assert (= "x" (str.at var6 693)))
(assert (= "|" (str.at var6 102)))
(assert (= "[" (str.at var38 170)))
(assert (= "p" (str.at var44 913)))
(assert (= "$" (str.at var58 180)))
(assert (= """" (str.at var9 376)))
(assert (= "{" (str.at var3 711)))
(assert (= "." (str.at var18 262)))
(assert (= "^" (str.at var9 348)))
(assert (= "L" (str.at var8 245)))
(assert (= "v" (str.at var20 628)))
(assert (= "2" (str.at var57 364)))
(assert (= "5" (str.at var26 302)))
(assert (= "M" (str.at var54 839)))
(assert (= "M" (str.at var33 349)))
(assert (= "t" (str.at var41 517)))
(assert (= "/" (str.at var50 526)))
(assert (= "h" (str.at var19 276)))
(assert (= "Q" (str.at var33 622)))
(assert (= "F" (str.at var47 765)))
(assert (= "8" (str.at var4 242)))
(assert (= "L" (str.at var43 166)))
(assert (= "1" (str.at var30 145)))
(assert (= "u" (str.at var57 924)))
(assert (= "#" (str.at var48 985)))
(assert (= "r" (str.at var26 6)))
(assert (= "|" (str.at var35 390)))
(assert (= "P" (str.at var36 161)))
(assert (= "H" (str.at var15 293)))
(assert (= "'" (str.at var41 188)))
(assert (= "(" (str.at var18 234)))
(assert (= "5" (str.at var22 662)))
(assert (= "(" (str.at var8 205)))
(assert (= "-" (str.at var3 696)))
(assert (= "." (str.at var2 930)))
(assert (= "i" (str.at var30 326)))
(assert (= "E" (str.at var36 141)))
(assert (= "'" (str.at var1 975)))
(assert (= "}" (str.at var36 125)))
(assert (= "Z" (str.at var7 299)))
(assert (= "]" (str.at var8 753)))
(assert (= "A" (str.at var14 145)))
(assert (= "]" (str.at var19 781)))
(assert (= "Z" (str.at var14 515)))
(assert (= "~" (str.at var60 988)))
(assert (= "I" (str.at var58 136)))
(assert (= "t" (str.at var36 907)))
(assert (= "H" (str.at var1 494)))
(assert (= "5" (str.at var54 909)))
(assert (= "(" (str.at var30 524)))
(assert (= "6" (str.at var25 801)))
(assert (= "z" (str.at var57 791)))
(assert (= "`" (str.at var55 979)))
(assert (= ";" (str.at var2 854)))
(assert (= "s" (str.at var35 995)))
(assert (= "K" (str.at var29 629)))
(assert (= "}" (str.at var10 56)))
(assert (= "R" (str.at var47 767)))
(assert (= "[" (str.at var35 568)))
(assert (= "w" (str.at var1 602)))
(assert (= "T" (str.at var26 192)))
(assert (= "\\" (str.at var45 571)))
(assert (= "K" (str.at var4 51)))
(assert (= ":" (str.at var36 486)))
(assert (= "Y" (str.at var32 132)))
(assert (= "|" (str.at var50 702)))
(assert (= "8" (str.at var33 987)))
(assert (= "T" (str.at var48 735)))
(assert (= "4" (str.at var55 96)))
(assert (= "^" (str.at var13 230)))
(assert (= "R" (str.at var51 967)))
(assert (= "C" (str.at var2 329)))
(assert (= "7" (str.at var50 117)))
(assert (= "H" (str.at var0 364)))
(assert (= "}" (str.at var12 390)))
(assert (= "L" (str.at var13 516)))
(assert (= """" (str.at var39 610)))
(assert (= "p" (str.at var11 258)))
(assert (= "g" (str.at var46 481)))
(assert (= "~" (str.at var14 549)))
(assert (= "{" (str.at var49 706)))
(assert (= "d" (str.at var54 257)))
(assert (= "(" (str.at var34 596)))
(assert (= "w" (str.at var58 776)))
(assert (= "d" (str.at var3 450)))
(assert (= "(" (str.at var39 163)))
(assert (= "7" (str.at var3 982)))
(assert (= "6" (str.at var35 130)))
(assert (= ">" (str.at var17 766)))
(assert (= "]" (str.at var50 78)))
(assert (= "o" (str.at var0 158)))
(assert (= "v" (str.at var6 159)))
(assert (= "O" (str.at var23 839)))
(assert (= "J" (str.at var40 288)))
(assert (= "\\" (str.at var56 228)))
(assert (= "*" (str.at var40 541)))
(assert (= "E" (str.at var55 933)))
(assert (= "s" (str.at var13 123)))
(assert (= "d" (str.at var17 655)))
(assert (= "P" (str.at var1 188)))
(assert (= "S" (str.at var42 898)))
(assert (= "]" (str.at var27 394)))
(assert (= "q" (str.at var1 118)))
(assert (= "T" (str.at var33 705)))
(assert (= "<" (str.at var36 431)))
(assert (= "r" (str.at var16 18)))
(assert (= "/" (str.at var14 701)))
(assert (= "`" (str.at var1 226)))
(assert (= "m" (str.at var1 558)))
(assert (= "C" (str.at var8 499)))
(assert (= "m" (str.at var48 958)))
(assert (= "+" (str.at var48 41)))
(assert (= "x" (str.at var10 797)))
(assert (= "O" (str.at var0 426)))
(assert (= "8" (str.at var48 30)))
(assert (= "D" (str.at var1 752)))
(assert (= "B" (str.at var53 741)))
(assert (= "&" (str.at var47 28)))
(assert (= "g" (str.at var16 148)))
(assert (= ")" (str.at var17 218)))
(assert (= "s" (str.at var38 604)))
(assert (= ")" (str.at var28 785)))
(assert (= "5" (str.at var54 472)))
(assert (= "2" (str.at var43 607)))
(assert (= "F" (str.at var37 265)))
(assert (= "y" (str.at var54 538)))
(assert (= "3" (str.at var3 992)))
(assert (= "I" (str.at var51 263)))
(assert (= "U" (str.at var16 919)))
(assert (= "m" (str.at var17 274)))
(assert (= "W" (str.at var26 511)))
(assert (= """" (str.at var12 538)))
(assert (= "u" (str.at var8 299)))
(assert (= "$" (str.at var47 296)))
(assert (= "x" (str.at var53 13)))
(assert (= "c" (str.at var27 191)))
(assert (= "Q" (str.at var33 867)))
(assert (= "t" (str.at var35 595)))
(assert (= "|" (str.at var4 374)))
(assert (= "R" (str.at var20 102)))
(assert (= "m" (str.at var19 814)))
(assert (= "@" (str.at var19 987)))
(assert (= "6" (str.at var23 238)))
(assert (= "]" (str.at var54 401)))
(assert (= "7" (str.at var43 885)))
(assert (= "4" (str.at var33 806)))
(assert (= "5" (str.at var42 797)))
(assert (= "$" (str.at var55 793)))
(assert (= "7" (str.at var0 103)))
(assert (= "7" (str.at var38 714)))
(assert (= "7" (str.at var36 251)))
(assert (= "G" (str.at var17 551)))
(assert (= "}" (str.at var2 880)))
(assert (= "\\" (str.at var10 43)))
(assert (= "j" (str.at var22 509)))
(assert (= "-" (str.at var45 489)))
(assert (= "l" (str.at var60 994)))
(assert (= "@" (str.at var2 875)))
(assert (= "'" (str.at var32 402)))
(assert (= """" (str.at var16 488)))
(assert (= "v" (str.at var57 475)))
(assert (= "g" (str.at var32 357)))
(assert (= "4" (str.at var18 237)))
(assert (= "g" (str.at var37 723)))
(assert (= "g" (str.at var32 25)))
(assert (= "f" (str.at var39 685)))
(assert (= "L" (str.at var35 935)))
(assert (= "s" (str.at var42 13)))
(assert (= "B" (str.at var3 449)))
(assert (= "[" (str.at var48 353)))
(assert (= "Q" (str.at var58 38)))
(assert (= "0" (str.at var50 306)))
(assert (= ">" (str.at var46 384)))
(assert (= "!" (str.at var28 5)))
(assert (= "H" (str.at var40 329)))
(assert (= "E" (str.at var25 198)))
(assert (= "'" (str.at var12 775)))
(assert (= "L" (str.at var45 115)))
(assert (= "}" (str.at var24 177)))
(assert (= "`" (str.at var29 762)))
(assert (= "e" (str.at var18 932)))
(assert (= "C" (str.at var28 987)))
(assert (= "6" (str.at var1 845)))
(assert (= "n" (str.at var57 397)))
(assert (= "n" (str.at var32 895)))
(assert (= "x" (str.at var41 928)))
(assert (= "~" (str.at var32 722)))
(assert (= "N" (str.at var6 355)))
(assert (= "r" (str.at var2 280)))
(assert (= "f" (str.at var39 115)))
(assert (= "a" (str.at var33 107)))
(assert (= "/" (str.at var8 126)))
(assert (= "b" (str.at var10 876)))
(assert (= "]" (str.at var43 489)))
(assert (= "*" (str.at var59 918)))
(assert (= "Q" (str.at var17 225)))
(assert (= "I" (str.at var49 265)))
(assert (= "\\" (str.at var27 976)))
(assert (= "W" (str.at var22 182)))
(assert (= "@" (str.at var30 629)))
(assert (= "7" (str.at var55 661)))
(assert (= "`" (str.at var31 802)))
(assert (= "L" (str.at var1 618)))
(assert (= "6" (str.at var47 753)))
(assert (= "U" (str.at var43 827)))
(assert (= "N" (str.at var54 731)))
(assert (= "4" (str.at var27 487)))
(assert (= "-" (str.at var1 451)))
(assert (= "C" (str.at var14 836)))
(assert (= "}" (str.at var14 919)))
(assert (= "u" (str.at var15 737)))
(assert (= "%" (str.at var27 55)))
(assert (= "q" (str.at var27 928)))
(assert (= "W" (str.at var53 292)))
(assert (= "@" (str.at var4 643)))
(assert (= "b" (str.at var28 702)))
(assert (= "C" (str.at var25 533)))
(assert (= "<" (str.at var21 490)))
(assert (= "i" (str.at var40 678)))
(assert (= "D" (str.at var41 320)))
(assert (= "A" (str.at var50 565)))
(assert (= "T" (str.at var48 605)))
(assert (= "B" (str.at var38 317)))
(assert (= "u" (str.at var24 345)))
(assert (= "u" (str.at var8 516)))
(assert (= "L" (str.at var49 873)))
(assert (= "p" (str.at var22 38)))
(assert (= "e" (str.at var42 817)))
(assert (= "t" (str.at var4 24)))
(assert (= "|" (str.at var32 876)))
(assert (= "2" (str.at var35 399)))
(assert (= "r" (str.at var4 586)))
(assert (= "'" (str.at var52 553)))
(assert (= "0" (str.at var55 518)))
(assert (= "3" (str.at var9 151)))
(assert (= "y" (str.at var8 124)))
(assert (= "P" (str.at var0 894)))
(assert (= "|" (str.at var33 597)))
(assert (= "#" (str.at var18 125)))
(assert (= "L" (str.at var4 909)))
(assert (= "y" (str.at var59 796)))
(assert (= "(" (str.at var54 363)))
(assert (= "&" (str.at var50 724)))
(assert (= "9" (str.at var7 752)))
(assert (= "2" (str.at var52 270)))
(assert (= "]" (str.at var20 852)))
(assert (= "S" (str.at var47 304)))
(assert (= "J" (str.at var55 686)))
(assert (= "S" (str.at var37 178)))
(assert (= """" (str.at var2 451)))
(assert (= "X" (str.at var48 685)))
(assert (= "{" (str.at var29 47)))
(assert (= "D" (str.at var22 617)))
(assert (= "O" (str.at var55 772)))
(assert (= "'" (str.at var23 51)))
(assert (= "q" (str.at var12 455)))
(assert (= "I" (str.at var14 694)))
(assert (= "&" (str.at var59 722)))
(assert (= "," (str.at var6 414)))
(assert (= "h" (str.at var18 272)))
(assert (= "s" (str.at var2 431)))
(assert (= "J" (str.at var44 271)))
(assert (= "u" (str.at var3 530)))
(assert (= "g" (str.at var17 670)))
(assert (= "l" (str.at var53 54)))
(assert (= "I" (str.at var60 24)))
(assert (= "h" (str.at var22 557)))
(assert (= "}" (str.at var9 391)))
(assert (= "|" (str.at var6 387)))
(assert (= "O" (str.at var2 968)))
(assert (= "X" (str.at var36 352)))
(assert (= "#" (str.at var8 241)))
(assert (= "0" (str.at var27 440)))
(assert (= "V" (str.at var30 614)))
(assert (= "'" (str.at var26 901)))
(assert (= "!" (str.at var5 907)))
(assert (= "+" (str.at var15 270)))
(assert (= "t" (str.at var60 331)))
(assert (= "B" (str.at var50 475)))
(assert (= "`" (str.at var46 516)))
(assert (= "l" (str.at var12 43)))
(assert (= "@" (str.at var51 798)))
(assert (= "+" (str.at var16 557)))
(assert (= "A" (str.at var60 388)))
(assert (= ")" (str.at var27 48)))
(assert (= "H" (str.at var24 479)))
(assert (= "=" (str.at var3 850)))
(assert (= "!" (str.at var28 46)))
(assert (= "_" (str.at var34 58)))
(assert (= "X" (str.at var16 508)))
(assert (= "V" (str.at var45 346)))
(assert (= "#" (str.at var7 238)))
(assert (= "1" (str.at var56 11)))
(assert (= "a" (str.at var16 365)))
(assert (= "K" (str.at var55 287)))
(assert (= ":" (str.at var38 308)))
(assert (= "[" (str.at var35 919)))
(assert (= "~" (str.at var14 70)))
(assert (= "p" (str.at var55 343)))
(assert (= "e" (str.at var15 905)))
(assert (= "w" (str.at var51 628)))
(assert (= "@" (str.at var42 330)))
(assert (= "H" (str.at var45 578)))
(assert (= "i" (str.at var21 811)))
(assert (= "I" (str.at var21 975)))
(assert (= "p" (str.at var43 942)))
(assert (= "z" (str.at var22 593)))
(assert (= "7" (str.at var2 856)))
(assert (= "(" (str.at var10 446)))
(assert (= "p" (str.at var60 640)))
(assert (= "z" (str.at var54 785)))
(assert (= "m" (str.at var0 160)))
(assert (= "J" (str.at var21 316)))
(assert (= ":" (str.at var51 761)))
(assert (= "\\" (str.at var47 895)))
(assert (= "s" (str.at var11 59)))
(assert (= "." (str.at var45 452)))
(assert (= "|" (str.at var58 300)))
(assert (= "J" (str.at var11 106)))
(assert (= "h" (str.at var22 293)))
(assert (= "G" (str.at var10 249)))
(assert (= "n" (str.at var0 697)))
(assert (= "R" (str.at var46 764)))
(assert (= "d" (str.at var49 127)))
(assert (= "Y" (str.at var35 436)))
(assert (= "+" (str.at var19 752)))
(assert (= "B" (str.at var2 467)))
(assert (= "." (str.at var48 72)))
(assert (= "R" (str.at var0 920)))
(assert (= "l" (str.at var30 619)))
(assert (= "N" (str.at var46 623)))
(assert (= "e" (str.at var50 926)))
(assert (= "t" (str.at var44 919)))
(assert (= "|" (str.at var46 570)))
(assert (= "g" (str.at var5 633)))
(assert (= "j" (str.at var35 587)))
(assert (= ">" (str.at var15 773)))
(assert (= "'" (str.at var58 921)))
(assert (= "I" (str.at var39 19)))
(assert (= "z" (str.at var60 478)))
(assert (= ":" (str.at var58 556)))
(assert (= "V" (str.at var43 424)))
(assert (= "%" (str.at var40 571)))
(assert (= "#" (str.at var9 634)))
(assert (= "!" (str.at var42 309)))
(assert (= "<" (str.at var53 672)))
(assert (= "x" (str.at var27 316)))
(assert (= "i" (str.at var5 995)))
(assert (= "u" (str.at var22 58)))
(assert (= "T" (str.at var32 20)))
(assert (= "C" (str.at var37 354)))
(assert (= "u" (str.at var41 544)))
(assert (= "}" (str.at var19 812)))
(assert (= "," (str.at var41 469)))
(assert (= "I" (str.at var54 957)))
(assert (= "p" (str.at var50 293)))
(assert (= "J" (str.at var54 347)))
(assert (= "Z" (str.at var46 605)))
(assert (= "(" (str.at var6 309)))
(assert (= "L" (str.at var50 462)))
(assert (= "{" (str.at var3 561)))
(assert (= "V" (str.at var33 681)))
(assert (= "r" (str.at var17 465)))
(assert (= "x" (str.at var30 342)))
(assert (= """" (str.at var36 664)))
(assert (= "c" (str.at var19 750)))
(assert (= "_" (str.at var0 300)))
(assert (= "5" (str.at var13 81)))
(assert (= "G" (str.at var59 130)))
(assert (= "|" (str.at var38 212)))
(assert (= "&" (str.at var34 948)))
(assert (= "5" (str.at var55 4)))
(assert (= "j" (str.at var48 219)))
(assert (= "i" (str.at var31 209)))
(assert (= "I" (str.at var4 682)))
(assert (= "g" (str.at var11 729)))
(assert (= ">" (str.at var18 446)))
(assert (= "E" (str.at var30 146)))
(assert (= "{" (str.at var46 388)))
(assert (= "3" (str.at var19 65)))
(assert (= "?" (str.at var28 950)))
(assert (= "h" (str.at var13 171)))
(assert (= "n" (str.at var19 557)))
(assert (= "f" (str.at var56 28)))
(assert (= "U" (str.at var18 523)))
(assert (= "P" (str.at var18 704)))
(assert (= "#" (str.at var54 754)))
(assert (= "k" (str.at var8 60)))
(assert (= "h" (str.at var57 897)))
(assert (= "n" (str.at var8 113)))
(assert (= "$" (str.at var26 555)))
(assert (= "r" (str.at var56 203)))
(assert (= "d" (str.at var34 407)))
(assert (= "'" (str.at var42 504)))
(assert (= "M" (str.at var60 27)))
(assert (= "6" (str.at var45 574)))
(assert (= "J" (str.at var40 747)))
(assert (= "," (str.at var28 83)))
(assert (= "B" (str.at var14 289)))
(assert (= "4" (str.at var7 665)))
(assert (= "f" (str.at var54 255)))
(assert (= "C" (str.at var45 226)))
(assert (= "K" (str.at var43 457)))
(assert (= "T" (str.at var43 338)))
(assert (= "E" (str.at var21 91)))
(assert (= ":" (str.at var0 443)))
(assert (= "h" (str.at var20 583)))
(assert (= "-" (str.at var7 838)))
(assert (= "8" (str.at var1 733)))
(assert (= "t" (str.at var9 148)))
(assert (= "f" (str.at var25 574)))
(assert (= "'" (str.at var1 172)))
(assert (= "Y" (str.at var29 734)))
(assert (= "d" (str.at var14 899)))
(assert (= "g" (str.at var12 60)))
(assert (= "5" (str.at var26 668)))
(assert (= "-" (str.at var0 968)))
(assert (= "'" (str.at var42 791)))
(assert (= ":" (str.at var33 746)))
(assert (= "0" (str.at var53 451)))
(assert (= "t" (str.at var4 13)))
(assert (= ">" (str.at var38 800)))
(assert (= "t" (str.at var33 217)))
(assert (= "D" (str.at var6 101)))
(assert (= "*" (str.at var50 150)))
(assert (= "r" (str.at var16 568)))
(assert (= "b" (str.at var4 757)))
(assert (= "w" (str.at var34 392)))
(assert (= "y" (str.at var32 715)))
(assert (= "0" (str.at var16 966)))
(assert (= "}" (str.at var39 937)))
(assert (= "\\" (str.at var50 420)))
(assert (= "2" (str.at var52 672)))
(assert (= "W" (str.at var23 855)))
(assert (= "g" (str.at var6 576)))
(assert (= "I" (str.at var49 210)))
(assert (= "l" (str.at var53 332)))
(assert (= "#" (str.at var10 100)))
(assert (= "f" (str.at var19 941)))
(assert (= "U" (str.at var45 67)))
(assert (= "H" (str.at var18 554)))
(assert (= "}" (str.at var2 272)))
(assert (= "|" (str.at var46 355)))
(assert (= "," (str.at var51 993)))
(assert (= "4" (str.at var28 130)))
(assert (= "t" (str.at var15 817)))
(assert (= "u" (str.at var58 747)))
(assert (= "i" (str.at var26 86)))
(assert (= "3" (str.at var13 926)))
(assert (= "7" (str.at var60 697)))
(assert (= "?" (str.at var43 367)))
(assert (= "]" (str.at var36 951)))
(assert (= "{" (str.at var14 843)))
(assert (= "}" (str.at var40 270)))
(assert (= "J" (str.at var20 11)))
(assert (= "v" (str.at var46 262)))
(assert (= "@" (str.at var50 356)))
(assert (= "A" (str.at var40 111)))
(assert (= "]" (str.at var24 272)))
(assert (= "," (str.at var1 953)))
(assert (= "H" (str.at var58 207)))
(assert (= "&" (str.at var33 751)))
(assert (= "s" (str.at var39 660)))
(assert (= "0" (str.at var39 118)))
(assert (= "j" (str.at var24 533)))
(assert (= "`" (str.at var8 201)))
(assert (= "2" (str.at var38 839)))
(assert (= "_" (str.at var20 820)))
(assert (= "e" (str.at var10 584)))
(assert (= "C" (str.at var43 452)))
(assert (= "D" (str.at var19 426)))
(assert (= "H" (str.at var52 405)))
(assert (= "!" (str.at var2 464)))
(assert (= "D" (str.at var29 282)))
(assert (= "T" (str.at var33 174)))
(assert (= "2" (str.at var22 947)))
(assert (= "E" (str.at var22 929)))
(assert (= """" (str.at var16 215)))
(assert (= "?" (str.at var36 39)))
(assert (= "b" (str.at var39 912)))
(assert (= "~" (str.at var21 151)))
(assert (= "L" (str.at var30 582)))
(assert (= "v" (str.at var53 482)))
(assert (= "D" (str.at var47 14)))
(assert (= "." (str.at var5 920)))
(assert (= "s" (str.at var60 17)))
(assert (= "T" (str.at var58 851)))
(assert (= "u" (str.at var42 754)))
(assert (= "B" (str.at var42 843)))
(assert (= "y" (str.at var30 205)))
(assert (= "?" (str.at var7 993)))
(assert (= "3" (str.at var59 798)))
(assert (= "=" (str.at var25 245)))
(assert (= "g" (str.at var30 368)))
(assert (= "f" (str.at var34 636)))
(assert (= "W" (str.at var27 820)))
(assert (= "," (str.at var39 324)))
(assert (= ">" (str.at var54 570)))
(assert (= "8" (str.at var36 439)))
(assert (= "J" (str.at var53 335)))
(assert (= "," (str.at var51 265)))
(assert (= "&" (str.at var9 329)))
(assert (= "2" (str.at var27 726)))
(check-sat)